benchmark/results/graph__10-1000-0.10-02_13/graph__10-1000-0.10-02_13_QuintonOs_Monolithic.lp
\ This file has been generated by DOcplex
\ ENCODING=ISO-8859-1
\Problem name: Quinton Bounded Monolithic

Maximize
 obj: tau
Subject To
 c1: tau - 0.001434720230 m_a0_proc_0 - 0.000839630563 m_a0_proc_1 <= 0
 c2: y_a0_proc_0 + y_a0_proc_1 - tau = 0
 c3: m_a0_proc_0 + m_a0_proc_1 = 1
 c4: y_a0_proc_0 - m_a0_proc_0 <= 0
 c5: y_a0_proc_0 >= 0
 c6: y_a0_proc_1 - m_a0_proc_1 <= 0
 c7: y_a0_proc_1 >= 0
 c8: tau - 0.001060445387 m_a1_proc_0 - 0.000798722045 m_a1_proc_1 <= 0
 c9: y_a1_proc_0 + y_a1_proc_1 - tau = 0
 c10: m_a1_proc_0 + m_a1_proc_1 = 1
 c11: y_a1_proc_0 - m_a1_proc_0 <= 0
 c12: y_a1_proc_0 >= 0
 c13: y_a1_proc_1 - m_a1_proc_1 <= 0
 c14: y_a1_proc_1 >= 0
 c15: tau - 0.000793650794 m_a2_proc_0 <= 0
 c16: y_a2_proc_0 - tau = 0
 c17: m_a2_proc_0 = 1
 c18: y_a2_proc_0 - m_a2_proc_0 <= 0
 c19: y_a2_proc_0 >= 0
 c20: tau - 0.001472754050 m_a3_proc_0 - 0.000949667616 m_a3_proc_1 <= 0
 c21: y_a3_proc_0 + y_a3_proc_1 - tau = 0
 c22: m_a3_proc_0 + m_a3_proc_1 = 1
 c23: y_a3_proc_0 - m_a3_proc_0 <= 0
 c24: y_a3_proc_0 >= 0
 c25: y_a3_proc_1 - m_a3_proc_1 <= 0
 c26: y_a3_proc_1 >= 0
 c27: tau - 0.001672240803 m_a4_proc_0 - 0.001074113856 m_a4_proc_1 <= 0
 c28: y_a4_proc_0 + y_a4_proc_1 - tau = 0
 c29: m_a4_proc_0 + m_a4_proc_1 = 1
 c30: y_a4_proc_0 - m_a4_proc_0 <= 0
 c31: y_a4_proc_0 >= 0
 c32: y_a4_proc_1 - m_a4_proc_1 <= 0
 c33: y_a4_proc_1 >= 0
 c34: tau - 0.006134969325 m_a5_proc_0 - 0.000893655049 m_a5_proc_1 <= 0
 c35: y_a5_proc_0 + y_a5_proc_1 - tau = 0
 c36: m_a5_proc_0 + m_a5_proc_1 = 1
 c37: y_a5_proc_0 - m_a5_proc_0 <= 0
 c38: y_a5_proc_0 >= 0
 c39: y_a5_proc_1 - m_a5_proc_1 <= 0
 c40: y_a5_proc_1 >= 0
 c41: tau - 0.001086956522 m_a6_proc_0 - 0.001055966209 m_a6_proc_1 <= 0
 c42: y_a6_proc_0 + y_a6_proc_1 - tau = 0
 c43: m_a6_proc_0 + m_a6_proc_1 = 1
 c44: y_a6_proc_0 - m_a6_proc_0 <= 0
 c45: y_a6_proc_0 >= 0
 c46: y_a6_proc_1 - m_a6_proc_1 <= 0
 c47: y_a6_proc_1 >= 0
 c48: tau - 0.001048218029 m_a7_proc_0 <= 0
 c49: y_a7_proc_0 - tau = 0
 c50: m_a7_proc_0 = 1
 c51: y_a7_proc_0 - m_a7_proc_0 <= 0
 c52: y_a7_proc_0 >= 0
 c53: tau - 0.000799360512 m_a8_proc_0 - 0.000914076782 m_a8_proc_1 <= 0
 c54: y_a8_proc_0 + y_a8_proc_1 - tau = 0
 c55: m_a8_proc_0 + m_a8_proc_1 = 1
 c56: y_a8_proc_0 - m_a8_proc_0 <= 0
 c57: y_a8_proc_0 >= 0
 c58: y_a8_proc_1 - m_a8_proc_1 <= 0
 c59: y_a8_proc_1 >= 0
 c60: tau - 0.000773993808 m_a9_proc_0 <= 0
 c61: y_a9_proc_0 - tau = 0
 c62: m_a9_proc_0 = 1
 c63: y_a9_proc_0 - m_a9_proc_0 <= 0
 c64: y_a9_proc_0 >= 0
 c65: u_a0 - u_a1 - 943 y_a1_proc_0 - 1252 y_a1_proc_1 >= -1
 c66: u_a1 - u_a2 - 1260 y_a2_proc_0 >= 0
 c67: u_a0 - u_a3 - 679 y_a3_proc_0 - 1053 y_a3_proc_1 >= -1
 c68: u_a4 - u_a1 - 943 y_a1_proc_0 - 1252 y_a1_proc_1 >= -1
 c69: u_a4 - u_a5 - 163 y_a5_proc_0 - 1119 y_a5_proc_1 >= 0
 c70: u_a3 - u_a6 - 920 y_a6_proc_0 - 947 y_a6_proc_1 >= 0
 c71: u_a7 - u_a2 - 1260 y_a2_proc_0 >= 0
 c72: u_a3 - u_a8 - 1251 y_a8_proc_0 - 1094 y_a8_proc_1 >= 0
 c73: u_a2 - u_a9 - 1292 y_a9_proc_0 >= 0
 c74: u_a9 - u_a3 - 679 y_a3_proc_0 - 1053 y_a3_proc_1 >= -1
 c75: u_a4 - u_a9 - 1292 y_a9_proc_0 >= 0
 c76: u_a8 - u_a7 - 954 y_a7_proc_0 >= -1
 c77: u_a8 - u_a4 - 598 y_a4_proc_0 - 931 y_a4_proc_1 >= -1
 c78: u_a6 - u_a7 - 954 y_a7_proc_0 >= -1
 c79: u_a9 - u_a8 - 1251 y_a8_proc_0 - 1094 y_a8_proc_1 >= 0
 c80: u_a6 - u_a4 - 598 y_a4_proc_0 - 931 y_a4_proc_1 >= 0
 c81: u_a5 - u_a0 - 697 y_a0_proc_0 - 1191 y_a0_proc_1 >= 0
 c82: u_a1 + K_a0_a1 - 1292 m_a0_proc_0 - 1292 m_a1_proc_0 - u_a0
      - 697 y_a0_proc_0 >= -2584
 c83: u_a1 + K_a0_a1 - 1292 m_a0_proc_1 - 1292 m_a1_proc_1 - u_a0
      - 1191 y_a0_proc_1 >= -2584
 c84: K_a0_a1 + K_a1_a0 = 1
 c85: u_a0 + K_a1_a0 - 1292 m_a0_proc_0 - 1292 m_a1_proc_0 - u_a1
      - 943 y_a1_proc_0 >= -2584
 c86: u_a0 + K_a1_a0 - 1292 m_a0_proc_1 - 1292 m_a1_proc_1 - u_a1
      - 1252 y_a1_proc_1 >= -2584
 c87: K_a0_a1 + K_a1_a0 = 1
 c88: u_a2 + K_a0_a2 - 1292 m_a0_proc_0 - 1292 m_a2_proc_0 - u_a0
      - 697 y_a0_proc_0 >= -2584
 c89: K_a0_a2 + K_a2_a0 = 1
 c90: u_a0 + K_a2_a0 - 1292 m_a0_proc_0 - 1292 m_a2_proc_0 - u_a2
      - 1260 y_a2_proc_0 >= -2584
 c91: K_a0_a2 + K_a2_a0 = 1
 c92: u_a3 + K_a0_a3 - 1292 m_a0_proc_0 - 1292 m_a3_proc_0 - u_a0
      - 697 y_a0_proc_0 >= -2584
 c93: u_a3 + K_a0_a3 - 1292 m_a0_proc_1 - 1292 m_a3_proc_1 - u_a0
      - 1191 y_a0_proc_1 >= -2584
 c94: K_a0_a3 + K_a3_a0 = 1
 c95: u_a0 + K_a3_a0 - 1292 m_a0_proc_0 - 1292 m_a3_proc_0 - u_a3
      - 679 y_a3_proc_0 >= -2584
 c96: u_a0 + K_a3_a0 - 1292 m_a0_proc_1 - 1292 m_a3_proc_1 - u_a3
      - 1053 y_a3_proc_1 >= -2584
 c97: K_a0_a3 + K_a3_a0 = 1
 c98: u_a4 + K_a0_a4 - 1292 m_a0_proc_0 - 1292 m_a4_proc_0 - u_a0
      - 697 y_a0_proc_0 >= -2584
 c99: u_a4 + K_a0_a4 - 1292 m_a0_proc_1 - 1292 m_a4_proc_1 - u_a0
      - 1191 y_a0_proc_1 >= -2584
 c100: K_a0_a4 + K_a4_a0 = 1
 c101: u_a0 + K_a4_a0 - 1292 m_a0_proc_0 - 1292 m_a4_proc_0 - u_a4
       - 598 y_a4_proc_0 >= -2584
 c102: u_a0 + K_a4_a0 - 1292 m_a0_proc_1 - 1292 m_a4_proc_1 - u_a4
       - 931 y_a4_proc_1 >= -2584
 c103: K_a0_a4 + K_a4_a0 = 1
 c104: u_a5 + K_a0_a5 - 1292 m_a0_proc_0 - 1292 m_a5_proc_0 - u_a0
       - 697 y_a0_proc_0 >= -2584
 c105: u_a5 + K_a0_a5 - 1292 m_a0_proc_1 - 1292 m_a5_proc_1 - u_a0
       - 1191 y_a0_proc_1 >= -2584
 c106: K_a0_a5 + K_a5_a0 = 1
 c107: u_a0 + K_a5_a0 - 1292 m_a0_proc_0 - 1292 m_a5_proc_0 - u_a5
       - 163 y_a5_proc_0 >= -2584
 c108: u_a0 + K_a5_a0 - 1292 m_a0_proc_1 - 1292 m_a5_proc_1 - u_a5
       - 1119 y_a5_proc_1 >= -2584
 c109: K_a0_a5 + K_a5_a0 = 1
 c110: u_a6 + K_a0_a6 - 1292 m_a0_proc_0 - 1292 m_a6_proc_0 - u_a0
       - 697 y_a0_proc_0 >= -2584
 c111: u_a6 + K_a0_a6 - 1292 m_a0_proc_1 - 1292 m_a6_proc_1 - u_a0
       - 1191 y_a0_proc_1 >= -2584
 c112: K_a0_a6 + K_a6_a0 = 1
 c113: u_a0 + K_a6_a0 - 1292 m_a0_proc_0 - 1292 m_a6_proc_0 - u_a6
       - 920 y_a6_proc_0 >= -2584
 c114: u_a0 + K_a6_a0 - 1292 m_a0_proc_1 - 1292 m_a6_proc_1 - u_a6
       - 947 y_a6_proc_1 >= -2584
 c115: K_a0_a6 + K_a6_a0 = 1
 c116: u_a7 + K_a0_a7 - 1292 m_a0_proc_0 - 1292 m_a7_proc_0 - u_a0
       - 697 y_a0_proc_0 >= -2584
 c117: K_a0_a7 + K_a7_a0 = 1
 c118: u_a0 + K_a7_a0 - 1292 m_a0_proc_0 - 1292 m_a7_proc_0 - u_a7
       - 954 y_a7_proc_0 >= -2584
 c119: K_a0_a7 + K_a7_a0 = 1
 c120: u_a8 + K_a0_a8 - 1292 m_a0_proc_0 - 1292 m_a8_proc_0 - u_a0
       - 697 y_a0_proc_0 >= -2584
 c121: u_a8 + K_a0_a8 - 1292 m_a0_proc_1 - 1292 m_a8_proc_1 - u_a0
       - 1191 y_a0_proc_1 >= -2584
 c122: K_a0_a8 + K_a8_a0 = 1
 c123: u_a0 + K_a8_a0 - 1292 m_a0_proc_0 - 1292 m_a8_proc_0 - u_a8
       - 1251 y_a8_proc_0 >= -2584
 c124: u_a0 + K_a8_a0 - 1292 m_a0_proc_1 - 1292 m_a8_proc_1 - u_a8
       - 1094 y_a8_proc_1 >= -2584
 c125: K_a0_a8 + K_a8_a0 = 1
 c126: u_a9 + K_a0_a9 - 1292 m_a0_proc_0 - 1292 m_a9_proc_0 - u_a0
       - 697 y_a0_proc_0 >= -2584
 c127: K_a0_a9 + K_a9_a0 = 1
 c128: u_a0 + K_a9_a0 - 1292 m_a0_proc_0 - 1292 m_a9_proc_0 - u_a9
       - 1292 y_a9_proc_0 >= -2584
 c129: K_a0_a9 + K_a9_a0 = 1
 c130: u_a2 + K_a1_a2 - 1292 m_a1_proc_0 - 1292 m_a2_proc_0 - u_a1
       - 943 y_a1_proc_0 >= -2584
 c131: K_a1_a2 + K_a2_a1 = 1
 c132: u_a1 + K_a2_a1 - 1292 m_a1_proc_0 - 1292 m_a2_proc_0 - u_a2
       - 1260 y_a2_proc_0 >= -2584
 c133: K_a1_a2 + K_a2_a1 = 1
 c134: u_a3 + K_a1_a3 - 1292 m_a1_proc_0 - 1292 m_a3_proc_0 - u_a1
       - 943 y_a1_proc_0 >= -2584
 c135: u_a3 + K_a1_a3 - 1292 m_a1_proc_1 - 1292 m_a3_proc_1 - u_a1
       - 1252 y_a1_proc_1 >= -2584
 c136: K_a1_a3 + K_a3_a1 = 1
 c137: u_a1 + K_a3_a1 - 1292 m_a1_proc_0 - 1292 m_a3_proc_0 - u_a3
       - 679 y_a3_proc_0 >= -2584
 c138: u_a1 + K_a3_a1 - 1292 m_a1_proc_1 - 1292 m_a3_proc_1 - u_a3
       - 1053 y_a3_proc_1 >= -2584
 c139: K_a1_a3 + K_a3_a1 = 1
 c140: u_a4 + K_a1_a4 - 1292 m_a1_proc_0 - 1292 m_a4_proc_0 - u_a1
       - 943 y_a1_proc_0 >= -2584
 c141: u_a4 + K_a1_a4 - 1292 m_a1_proc_1 - 1292 m_a4_proc_1 - u_a1
       - 1252 y_a1_proc_1 >= -2584
 c142: K_a1_a4 + K_a4_a1 = 1
 c143: u_a1 + K_a4_a1 - 1292 m_a1_proc_0 - 1292 m_a4_proc_0 - u_a4
       - 598 y_a4_proc_0 >= -2584
 c144: u_a1 + K_a4_a1 - 1292 m_a1_proc_1 - 1292 m_a4_proc_1 - u_a4
       - 931 y_a4_proc_1 >= -2584
 c145: K_a1_a4 + K_a4_a1 = 1
 c146: u_a5 + K_a1_a5 - 1292 m_a1_proc_0 - 1292 m_a5_proc_0 - u_a1
       - 943 y_a1_proc_0 >= -2584
 c147: u_a5 + K_a1_a5 - 1292 m_a1_proc_1 - 1292 m_a5_proc_1 - u_a1
       - 1252 y_a1_proc_1 >= -2584
 c148: K_a1_a5 + K_a5_a1 = 1
 c149: u_a1 + K_a5_a1 - 1292 m_a1_proc_0 - 1292 m_a5_proc_0 - u_a5
       - 163 y_a5_proc_0 >= -2584
 c150: u_a1 + K_a5_a1 - 1292 m_a1_proc_1 - 1292 m_a5_proc_1 - u_a5
       - 1119 y_a5_proc_1 >= -2584
 c151: K_a1_a5 + K_a5_a1 = 1
 c152: u_a6 + K_a1_a6 - 1292 m_a1_proc_0 - 1292 m_a6_proc_0 - u_a1
       - 943 y_a1_proc_0 >= -2584
 c153: u_a6 + K_a1_a6 - 1292 m_a1_proc_1 - 1292 m_a6_proc_1 - u_a1
       - 1252 y_a1_proc_1 >= -2584
 c154: K_a1_a6 + K_a6_a1 = 1
 c155: u_a1 + K_a6_a1 - 1292 m_a1_proc_0 - 1292 m_a6_proc_0 - u_a6
       - 920 y_a6_proc_0 >= -2584
 c156: u_a1 + K_a6_a1 - 1292 m_a1_proc_1 - 1292 m_a6_proc_1 - u_a6
       - 947 y_a6_proc_1 >= -2584
 c157: K_a1_a6 + K_a6_a1 = 1
 c158: u_a7 + K_a1_a7 - 1292 m_a1_proc_0 - 1292 m_a7_proc_0 - u_a1
       - 943 y_a1_proc_0 >= -2584
 c159: K_a1_a7 + K_a7_a1 = 1
 c160: u_a1 + K_a7_a1 - 1292 m_a1_proc_0 - 1292 m_a7_proc_0 - u_a7
       - 954 y_a7_proc_0 >= -2584
 c161: K_a1_a7 + K_a7_a1 = 1
 c162: u_a8 + K_a1_a8 - 1292 m_a1_proc_0 - 1292 m_a8_proc_0 - u_a1
       - 943 y_a1_proc_0 >= -2584
 c163: u_a8 + K_a1_a8 - 1292 m_a1_proc_1 - 1292 m_a8_proc_1 - u_a1
       - 1252 y_a1_proc_1 >= -2584
 c164: K_a1_a8 + K_a8_a1 = 1
 c165: u_a1 + K_a8_a1 - 1292 m_a1_proc_0 - 1292 m_a8_proc_0 - u_a8
       - 1251 y_a8_proc_0 >= -2584
 c166: u_a1 + K_a8_a1 - 1292 m_a1_proc_1 - 1292 m_a8_proc_1 - u_a8
       - 1094 y_a8_proc_1 >= -2584
 c167: K_a1_a8 + K_a8_a1 = 1
 c168: u_a9 + K_a1_a9 - 1292 m_a1_proc_0 - 1292 m_a9_proc_0 - u_a1
       - 943 y_a1_proc_0 >= -2584
 c169: K_a1_a9 + K_a9_a1 = 1
 c170: u_a1 + K_a9_a1 - 1292 m_a1_proc_0 - 1292 m_a9_proc_0 - u_a9
       - 1292 y_a9_proc_0 >= -2584
 c171: K_a1_a9 + K_a9_a1 = 1
 c172: u_a3 + K_a2_a3 - 1292 m_a2_proc_0 - 1292 m_a3_proc_0 - u_a2
       - 1260 y_a2_proc_0 >= -2584
 c173: K_a2_a3 + K_a3_a2 = 1
 c174: u_a2 + K_a3_a2 - 1292 m_a2_proc_0 - 1292 m_a3_proc_0 - u_a3
       - 679 y_a3_proc_0 >= -2584
 c175: K_a2_a3 + K_a3_a2 = 1
 c176: u_a4 + K_a2_a4 - 1292 m_a2_proc_0 - 1292 m_a4_proc_0 - u_a2
       - 1260 y_a2_proc_0 >= -2584
 c177: K_a2_a4 + K_a4_a2 = 1
 c178: u_a2 + K_a4_a2 - 1292 m_a2_proc_0 - 1292 m_a4_proc_0 - u_a4
       - 598 y_a4_proc_0 >= -2584
 c179: K_a2_a4 + K_a4_a2 = 1
 c180: u_a5 + K_a2_a5 - 1292 m_a2_proc_0 - 1292 m_a5_proc_0 - u_a2
       - 1260 y_a2_proc_0 >= -2584
 c181: K_a2_a5 + K_a5_a2 = 1
 c182: u_a2 + K_a5_a2 - 1292 m_a2_proc_0 - 1292 m_a5_proc_0 - u_a5
       - 163 y_a5_proc_0 >= -2584
 c183: K_a2_a5 + K_a5_a2 = 1
 c184: u_a6 + K_a2_a6 - 1292 m_a2_proc_0 - 1292 m_a6_proc_0 - u_a2
       - 1260 y_a2_proc_0 >= -2584
 c185: K_a2_a6 + K_a6_a2 = 1
 c186: u_a2 + K_a6_a2 - 1292 m_a2_proc_0 - 1292 m_a6_proc_0 - u_a6
       - 920 y_a6_proc_0 >= -2584
 c187: K_a2_a6 + K_a6_a2 = 1
 c188: u_a7 + K_a2_a7 - 1292 m_a2_proc_0 - 1292 m_a7_proc_0 - u_a2
       - 1260 y_a2_proc_0 >= -2584
 c189: K_a2_a7 + K_a7_a2 = 1
 c190: u_a2 + K_a7_a2 - 1292 m_a2_proc_0 - 1292 m_a7_proc_0 - u_a7
       - 954 y_a7_proc_0 >= -2584
 c191: K_a2_a7 + K_a7_a2 = 1
 c192: u_a8 + K_a2_a8 - 1292 m_a2_proc_0 - 1292 m_a8_proc_0 - u_a2
       - 1260 y_a2_proc_0 >= -2584
 c193: K_a2_a8 + K_a8_a2 = 1
 c194: u_a2 + K_a8_a2 - 1292 m_a2_proc_0 - 1292 m_a8_proc_0 - u_a8
       - 1251 y_a8_proc_0 >= -2584
 c195: K_a2_a8 + K_a8_a2 = 1
 c196: u_a9 + K_a2_a9 - 1292 m_a2_proc_0 - 1292 m_a9_proc_0 - u_a2
       - 1260 y_a2_proc_0 >= -2584
 c197: K_a2_a9 + K_a9_a2 = 1
 c198: u_a2 + K_a9_a2 - 1292 m_a2_proc_0 - 1292 m_a9_proc_0 - u_a9
       - 1292 y_a9_proc_0 >= -2584
 c199: K_a2_a9 + K_a9_a2 = 1
 c200: u_a4 + K_a3_a4 - 1292 m_a3_proc_0 - 1292 m_a4_proc_0 - u_a3
       - 679 y_a3_proc_0 >= -2584
 c201: u_a4 + K_a3_a4 - 1292 m_a3_proc_1 - 1292 m_a4_proc_1 - u_a3
       - 1053 y_a3_proc_1 >= -2584
 c202: K_a3_a4 + K_a4_a3 = 1
 c203: u_a3 + K_a4_a3 - 1292 m_a3_proc_0 - 1292 m_a4_proc_0 - u_a4
       - 598 y_a4_proc_0 >= -2584
 c204: u_a3 + K_a4_a3 - 1292 m_a3_proc_1 - 1292 m_a4_proc_1 - u_a4
       - 931 y_a4_proc_1 >= -2584
 c205: K_a3_a4 + K_a4_a3 = 1
 c206: u_a5 + K_a3_a5 - 1292 m_a3_proc_0 - 1292 m_a5_proc_0 - u_a3
       - 679 y_a3_proc_0 >= -2584
 c207: u_a5 + K_a3_a5 - 1292 m_a3_proc_1 - 1292 m_a5_proc_1 - u_a3
       - 1053 y_a3_proc_1 >= -2584
 c208: K_a3_a5 + K_a5_a3 = 1
 c209: u_a3 + K_a5_a3 - 1292 m_a3_proc_0 - 1292 m_a5_proc_0 - u_a5
       - 163 y_a5_proc_0 >= -2584
 c210: u_a3 + K_a5_a3 - 1292 m_a3_proc_1 - 1292 m_a5_proc_1 - u_a5
       - 1119 y_a5_proc_1 >= -2584
 c211: K_a3_a5 + K_a5_a3 = 1
 c212: u_a6 + K_a3_a6 - 1292 m_a3_proc_0 - 1292 m_a6_proc_0 - u_a3
       - 679 y_a3_proc_0 >= -2584
 c213: u_a6 + K_a3_a6 - 1292 m_a3_proc_1 - 1292 m_a6_proc_1 - u_a3
       - 1053 y_a3_proc_1 >= -2584
 c214: K_a3_a6 + K_a6_a3 = 1
 c215: u_a3 + K_a6_a3 - 1292 m_a3_proc_0 - 1292 m_a6_proc_0 - u_a6
       - 920 y_a6_proc_0 >= -2584
 c216: u_a3 + K_a6_a3 - 1292 m_a3_proc_1 - 1292 m_a6_proc_1 - u_a6
       - 947 y_a6_proc_1 >= -2584
 c217: K_a3_a6 + K_a6_a3 = 1
 c218: u_a7 + K_a3_a7 - 1292 m_a3_proc_0 - 1292 m_a7_proc_0 - u_a3
       - 679 y_a3_proc_0 >= -2584
 c219: K_a3_a7 + K_a7_a3 = 1
 c220: u_a3 + K_a7_a3 - 1292 m_a3_proc_0 - 1292 m_a7_proc_0 - u_a7
       - 954 y_a7_proc_0 >= -2584
 c221: K_a3_a7 + K_a7_a3 = 1
 c222: u_a8 + K_a3_a8 - 1292 m_a3_proc_0 - 1292 m_a8_proc_0 - u_a3
       - 679 y_a3_proc_0 >= -2584
 c223: u_a8 + K_a3_a8 - 1292 m_a3_proc_1 - 1292 m_a8_proc_1 - u_a3
       - 1053 y_a3_proc_1 >= -2584
 c224: K_a3_a8 + K_a8_a3 = 1
 c225: u_a3 + K_a8_a3 - 1292 m_a3_proc_0 - 1292 m_a8_proc_0 - u_a8
       - 1251 y_a8_proc_0 >= -2584
 c226: u_a3 + K_a8_a3 - 1292 m_a3_proc_1 - 1292 m_a8_proc_1 - u_a8
       - 1094 y_a8_proc_1 >= -2584
 c227: K_a3_a8 + K_a8_a3 = 1
 c228: u_a9 + K_a3_a9 - 1292 m_a3_proc_0 - 1292 m_a9_proc_0 - u_a3
       - 679 y_a3_proc_0 >= -2584
 c229: K_a3_a9 + K_a9_a3 = 1
 c230: u_a3 + K_a9_a3 - 1292 m_a3_proc_0 - 1292 m_a9_proc_0 - u_a9
       - 1292 y_a9_proc_0 >= -2584
 c231: K_a3_a9 + K_a9_a3 = 1
 c232: u_a5 + K_a4_a5 - 1292 m_a4_proc_0 - 1292 m_a5_proc_0 - u_a4
       - 598 y_a4_proc_0 >= -2584
 c233: u_a5 + K_a4_a5 - 1292 m_a4_proc_1 - 1292 m_a5_proc_1 - u_a4
       - 931 y_a4_proc_1 >= -2584
 c234: K_a4_a5 + K_a5_a4 = 1
 c235: u_a4 + K_a5_a4 - 1292 m_a4_proc_0 - 1292 m_a5_proc_0 - u_a5
       - 163 y_a5_proc_0 >= -2584
 c236: u_a4 + K_a5_a4 - 1292 m_a4_proc_1 - 1292 m_a5_proc_1 - u_a5
       - 1119 y_a5_proc_1 >= -2584
 c237: K_a4_a5 + K_a5_a4 = 1
 c238: u_a6 + K_a4_a6 - 1292 m_a4_proc_0 - 1292 m_a6_proc_0 - u_a4
       - 598 y_a4_proc_0 >= -2584
 c239: u_a6 + K_a4_a6 - 1292 m_a4_proc_1 - 1292 m_a6_proc_1 - u_a4
       - 931 y_a4_proc_1 >= -2584
 c240: K_a4_a6 + K_a6_a4 = 1
 c241: u_a4 + K_a6_a4 - 1292 m_a4_proc_0 - 1292 m_a6_proc_0 - u_a6
       - 920 y_a6_proc_0 >= -2584
 c242: u_a4 + K_a6_a4 - 1292 m_a4_proc_1 - 1292 m_a6_proc_1 - u_a6
       - 947 y_a6_proc_1 >= -2584
 c243: K_a4_a6 + K_a6_a4 = 1
 c244: u_a7 + K_a4_a7 - 1292 m_a4_proc_0 - 1292 m_a7_proc_0 - u_a4
       - 598 y_a4_proc_0 >= -2584
 c245: K_a4_a7 + K_a7_a4 = 1
 c246: u_a4 + K_a7_a4 - 1292 m_a4_proc_0 - 1292 m_a7_proc_0 - u_a7
       - 954 y_a7_proc_0 >= -2584
 c247: K_a4_a7 + K_a7_a4 = 1
 c248: u_a8 + K_a4_a8 - 1292 m_a4_proc_0 - 1292 m_a8_proc_0 - u_a4
       - 598 y_a4_proc_0 >= -2584
 c249: u_a8 + K_a4_a8 - 1292 m_a4_proc_1 - 1292 m_a8_proc_1 - u_a4
       - 931 y_a4_proc_1 >= -2584
 c250: K_a4_a8 + K_a8_a4 = 1
 c251: u_a4 + K_a8_a4 - 1292 m_a4_proc_0 - 1292 m_a8_proc_0 - u_a8
       - 1251 y_a8_proc_0 >= -2584
 c252: u_a4 + K_a8_a4 - 1292 m_a4_proc_1 - 1292 m_a8_proc_1 - u_a8
       - 1094 y_a8_proc_1 >= -2584
 c253: K_a4_a8 + K_a8_a4 = 1
 c254: u_a9 + K_a4_a9 - 1292 m_a4_proc_0 - 1292 m_a9_proc_0 - u_a4
       - 598 y_a4_proc_0 >= -2584
 c255: K_a4_a9 + K_a9_a4 = 1
 c256: u_a4 + K_a9_a4 - 1292 m_a4_proc_0 - 1292 m_a9_proc_0 - u_a9
       - 1292 y_a9_proc_0 >= -2584
 c257: K_a4_a9 + K_a9_a4 = 1
 c258: u_a6 + K_a5_a6 - 1292 m_a5_proc_0 - 1292 m_a6_proc_0 - u_a5
       - 163 y_a5_proc_0 >= -2584
 c259: u_a6 + K_a5_a6 - 1292 m_a5_proc_1 - 1292 m_a6_proc_1 - u_a5
       - 1119 y_a5_proc_1 >= -2584
 c260: K_a5_a6 + K_a6_a5 = 1
 c261: u_a5 + K_a6_a5 - 1292 m_a5_proc_0 - 1292 m_a6_proc_0 - u_a6
       - 920 y_a6_proc_0 >= -2584
 c262: u_a5 + K_a6_a5 - 1292 m_a5_proc_1 - 1292 m_a6_proc_1 - u_a6
       - 947 y_a6_proc_1 >= -2584
 c263: K_a5_a6 + K_a6_a5 = 1
 c264: u_a7 + K_a5_a7 - 1292 m_a5_proc_0 - 1292 m_a7_proc_0 - u_a5
       - 163 y_a5_proc_0 >= -2584
 c265: K_a5_a7 + K_a7_a5 = 1
 c266: u_a5 + K_a7_a5 - 1292 m_a5_proc_0 - 1292 m_a7_proc_0 - u_a7
       - 954 y_a7_proc_0 >= -2584
 c267: K_a5_a7 + K_a7_a5 = 1
 c268: u_a8 + K_a5_a8 - 1292 m_a5_proc_0 - 1292 m_a8_proc_0 - u_a5
       - 163 y_a5_proc_0 >= -2584
 c269: u_a8 + K_a5_a8 - 1292 m_a5_proc_1 - 1292 m_a8_proc_1 - u_a5
       - 1119 y_a5_proc_1 >= -2584
 c270: K_a5_a8 + K_a8_a5 = 1
 c271: u_a5 + K_a8_a5 - 1292 m_a5_proc_0 - 1292 m_a8_proc_0 - u_a8
       - 1251 y_a8_proc_0 >= -2584
 c272: u_a5 + K_a8_a5 - 1292 m_a5_proc_1 - 1292 m_a8_proc_1 - u_a8
       - 1094 y_a8_proc_1 >= -2584
 c273: K_a5_a8 + K_a8_a5 = 1
 c274: u_a9 + K_a5_a9 - 1292 m_a5_proc_0 - 1292 m_a9_proc_0 - u_a5
       - 163 y_a5_proc_0 >= -2584
 c275: K_a5_a9 + K_a9_a5 = 1
 c276: u_a5 + K_a9_a5 - 1292 m_a5_proc_0 - 1292 m_a9_proc_0 - u_a9
       - 1292 y_a9_proc_0 >= -2584
 c277: K_a5_a9 + K_a9_a5 = 1
 c278: u_a7 + K_a6_a7 - 1292 m_a6_proc_0 - 1292 m_a7_proc_0 - u_a6
       - 920 y_a6_proc_0 >= -2584
 c279: K_a6_a7 + K_a7_a6 = 1
 c280: u_a6 + K_a7_a6 - 1292 m_a6_proc_0 - 1292 m_a7_proc_0 - u_a7
       - 954 y_a7_proc_0 >= -2584
 c281: K_a6_a7 + K_a7_a6 = 1
 c282: u_a8 + K_a6_a8 - 1292 m_a6_proc_0 - 1292 m_a8_proc_0 - u_a6
       - 920 y_a6_proc_0 >= -2584
 c283: u_a8 + K_a6_a8 - 1292 m_a6_proc_1 - 1292 m_a8_proc_1 - u_a6
       - 947 y_a6_proc_1 >= -2584
 c284: K_a6_a8 + K_a8_a6 = 1
 c285: u_a6 + K_a8_a6 - 1292 m_a6_proc_0 - 1292 m_a8_proc_0 - u_a8
       - 1251 y_a8_proc_0 >= -2584
 c286: u_a6 + K_a8_a6 - 1292 m_a6_proc_1 - 1292 m_a8_proc_1 - u_a8
       - 1094 y_a8_proc_1 >= -2584
 c287: K_a6_a8 + K_a8_a6 = 1
 c288: u_a9 + K_a6_a9 - 1292 m_a6_proc_0 - 1292 m_a9_proc_0 - u_a6
       - 920 y_a6_proc_0 >= -2584
 c289: K_a6_a9 + K_a9_a6 = 1
 c290: u_a6 + K_a9_a6 - 1292 m_a6_proc_0 - 1292 m_a9_proc_0 - u_a9
       - 1292 y_a9_proc_0 >= -2584
 c291: K_a6_a9 + K_a9_a6 = 1
 c292: u_a8 + K_a7_a8 - 1292 m_a7_proc_0 - 1292 m_a8_proc_0 - u_a7
       - 954 y_a7_proc_0 >= -2584
 c293: K_a7_a8 + K_a8_a7 = 1
 c294: u_a7 + K_a8_a7 - 1292 m_a7_proc_0 - 1292 m_a8_proc_0 - u_a8
       - 1251 y_a8_proc_0 >= -2584
 c295: K_a7_a8 + K_a8_a7 = 1
 c296: u_a9 + K_a7_a9 - 1292 m_a7_proc_0 - 1292 m_a9_proc_0 - u_a7
       - 954 y_a7_proc_0 >= -2584
 c297: K_a7_a9 + K_a9_a7 = 1
 c298: u_a7 + K_a9_a7 - 1292 m_a7_proc_0 - 1292 m_a9_proc_0 - u_a9
       - 1292 y_a9_proc_0 >= -2584
 c299: K_a7_a9 + K_a9_a7 = 1
 c300: u_a9 + K_a8_a9 - 1292 m_a8_proc_0 - 1292 m_a9_proc_0 - u_a8
       - 1251 y_a8_proc_0 >= -2584
 c301: K_a8_a9 + K_a9_a8 = 1
 c302: u_a8 + K_a9_a8 - 1292 m_a8_proc_0 - 1292 m_a9_proc_0 - u_a9
       - 1292 y_a9_proc_0 >= -2584
 c303: K_a8_a9 + K_a9_a8 = 1

Bounds
 -12 <= K_a0_a1 <= 12
 -12 <= K_a0_a2 <= 12
 -12 <= K_a0_a3 <= 12
 -12 <= K_a0_a4 <= 12
 -12 <= K_a0_a5 <= 12
 -12 <= K_a0_a6 <= 12
 -12 <= K_a0_a7 <= 12
 -12 <= K_a0_a8 <= 12
 -12 <= K_a0_a9 <= 12
 -12 <= K_a1_a0 <= 12
 -12 <= K_a1_a2 <= 12
 -12 <= K_a1_a3 <= 12
 -12 <= K_a1_a4 <= 12
 -12 <= K_a1_a5 <= 12
 -12 <= K_a1_a6 <= 12
 -12 <= K_a1_a7 <= 12
 -12 <= K_a1_a8 <= 12
 -12 <= K_a1_a9 <= 12
 -12 <= K_a2_a0 <= 12
 -12 <= K_a2_a1 <= 12
 -12 <= K_a2_a3 <= 12
 -12 <= K_a2_a4 <= 12
 -12 <= K_a2_a5 <= 12
 -12 <= K_a2_a6 <= 12
 -12 <= K_a2_a7 <= 12
 -12 <= K_a2_a8 <= 12
 -12 <= K_a2_a9 <= 12
 -12 <= K_a3_a0 <= 12
 -12 <= K_a3_a1 <= 12
 -12 <= K_a3_a2 <= 12
 -12 <= K_a3_a4 <= 12
 -12 <= K_a3_a5 <= 12
 -12 <= K_a3_a6 <= 12
 -12 <= K_a3_a7 <= 12
 -12 <= K_a3_a8 <= 12
 -12 <= K_a3_a9 <= 12
 -12 <= K_a4_a0 <= 12
 -12 <= K_a4_a1 <= 12
 -12 <= K_a4_a2 <= 12
 -12 <= K_a4_a3 <= 12
 -12 <= K_a4_a5 <= 12
 -12 <= K_a4_a6 <= 12
 -12 <= K_a4_a7 <= 12
 -12 <= K_a4_a8 <= 12
 -12 <= K_a4_a9 <= 12
 -12 <= K_a5_a0 <= 12
 -12 <= K_a5_a1 <= 12
 -12 <= K_a5_a2 <= 12
 -12 <= K_a5_a3 <= 12
 -12 <= K_a5_a4 <= 12
 -12 <= K_a5_a6 <= 12
 -12 <= K_a5_a7 <= 12
 -12 <= K_a5_a8 <= 12
 -12 <= K_a5_a9 <= 12
 -12 <= K_a6_a0 <= 12
 -12 <= K_a6_a1 <= 12
 -12 <= K_a6_a2 <= 12
 -12 <= K_a6_a3 <= 12
 -12 <= K_a6_a4 <= 12
 -12 <= K_a6_a5 <= 12
 -12 <= K_a6_a7 <= 12
 -12 <= K_a6_a8 <= 12
 -12 <= K_a6_a9 <= 12
 -12 <= K_a7_a0 <= 12
 -12 <= K_a7_a1 <= 12
 -12 <= K_a7_a2 <= 12
 -12 <= K_a7_a3 <= 12
 -12 <= K_a7_a4 <= 12
 -12 <= K_a7_a5 <= 12
 -12 <= K_a7_a6 <= 12
 -12 <= K_a7_a8 <= 12
 -12 <= K_a7_a9 <= 12
 -12 <= K_a8_a0 <= 12
 -12 <= K_a8_a1 <= 12
 -12 <= K_a8_a2 <= 12
 -12 <= K_a8_a3 <= 12
 -12 <= K_a8_a4 <= 12
 -12 <= K_a8_a5 <= 12
 -12 <= K_a8_a6 <= 12
 -12 <= K_a8_a7 <= 12
 -12 <= K_a8_a9 <= 12
 -12 <= K_a9_a0 <= 12
 -12 <= K_a9_a1 <= 12
 -12 <= K_a9_a2 <= 12
 -12 <= K_a9_a3 <= 12
 -12 <= K_a9_a4 <= 12
 -12 <= K_a9_a5 <= 12
 -12 <= K_a9_a6 <= 12
 -12 <= K_a9_a7 <= 12
 -12 <= K_a9_a8 <= 12
 0 <= m_a0_proc_0 <= 1
 0 <= m_a0_proc_1 <= 1
 0 <= m_a1_proc_0 <= 1
 0 <= m_a1_proc_1 <= 1
 0 <= m_a2_proc_0 <= 1
 0 <= m_a3_proc_0 <= 1
 0 <= m_a3_proc_1 <= 1
 0 <= m_a4_proc_0 <= 1
 0 <= m_a4_proc_1 <= 1
 0 <= m_a5_proc_0 <= 1
 0 <= m_a5_proc_1 <= 1
 0 <= m_a6_proc_0 <= 1
 0 <= m_a6_proc_1 <= 1
 0 <= m_a7_proc_0 <= 1
 0 <= m_a8_proc_0 <= 1
 0 <= m_a8_proc_1 <= 1
 0 <= m_a9_proc_0 <= 1

Binaries
 m_a0_proc_0 m_a0_proc_1 m_a1_proc_0 m_a1_proc_1 m_a2_proc_0 m_a3_proc_0
 m_a3_proc_1 m_a4_proc_0 m_a4_proc_1 m_a5_proc_0 m_a5_proc_1 m_a6_proc_0
 m_a6_proc_1 m_a7_proc_0 m_a8_proc_0 m_a8_proc_1 m_a9_proc_0

Generals
 K_a0_a1 K_a0_a2 K_a0_a3 K_a0_a4 K_a0_a5 K_a0_a6 K_a0_a7 K_a0_a8 K_a0_a9 K_a1_a0
 K_a1_a2 K_a1_a3 K_a1_a4 K_a1_a5 K_a1_a6 K_a1_a7 K_a1_a8 K_a1_a9 K_a2_a0 K_a2_a1
 K_a2_a3 K_a2_a4 K_a2_a5 K_a2_a6 K_a2_a7 K_a2_a8 K_a2_a9 K_a3_a0 K_a3_a1 K_a3_a2
 K_a3_a4 K_a3_a5 K_a3_a6 K_a3_a7 K_a3_a8 K_a3_a9 K_a4_a0 K_a4_a1 K_a4_a2 K_a4_a3
 K_a4_a5 K_a4_a6 K_a4_a7 K_a4_a8 K_a4_a9 K_a5_a0 K_a5_a1 K_a5_a2 K_a5_a3 K_a5_a4
 K_a5_a6 K_a5_a7 K_a5_a8 K_a5_a9 K_a6_a0 K_a6_a1 K_a6_a2 K_a6_a3 K_a6_a4 K_a6_a5
 K_a6_a7 K_a6_a8 K_a6_a9 K_a7_a0 K_a7_a1 K_a7_a2 K_a7_a3 K_a7_a4 K_a7_a5 K_a7_a6
 K_a7_a8 K_a7_a9 K_a8_a0 K_a8_a1 K_a8_a2 K_a8_a3 K_a8_a4 K_a8_a5 K_a8_a6 K_a8_a7
 K_a8_a9 K_a9_a0 K_a9_a1 K_a9_a2 K_a9_a3 K_a9_a4 K_a9_a5 K_a9_a6 K_a9_a7 K_a9_a8
End
