benchmark/results/graph__10-1000-0.10-02_13/graph__10-1000-0.10-02_13_QuintonOs_Monolithic.txt
solution for: Quinton Bounded Monolithic
objective: 0.000189825
status: OPTIMAL_SOLUTION(2)
u_a0=0.247
u_a1=0.762
u_a2=0.523
u_a3=1.118
u_a4=0.586
u_a5=0.492
u_a6=0.943
u_a7=0.762
u_a9=0.247
tau=0.000
K_a0_a2=12
K_a0_a3=12
K_a0_a5=12
K_a0_a6=12
K_a0_a7=12
K_a0_a8=1
K_a0_a9=12
K_a1_a0=1
K_a1_a2=12
K_a1_a3=12
K_a1_a4=1
K_a1_a5=12
K_a1_a6=12
K_a1_a7=12
K_a1_a8=1
K_a1_a9=12
K_a2_a0=-11
K_a2_a1=-11
K_a2_a4=12
K_a2_a5=1
K_a2_a8=12
K_a2_a9=1
K_a3_a0=-11
K_a3_a1=-11
K_a3_a2=1
K_a3_a4=12
K_a3_a5=1
K_a3_a6=1
K_a3_a7=1
K_a3_a8=12
K_a3_a9=1
K_a4_a0=1
K_a4_a2=-11
K_a4_a3=-11
K_a4_a5=12
K_a4_a6=12
K_a4_a7=12
K_a4_a8=1
K_a4_a9=12
K_a5_a0=-11
K_a5_a1=-11
K_a5_a4=-11
K_a5_a8=12
K_a5_a9=1
K_a6_a0=-11
K_a6_a1=-11
K_a6_a2=1
K_a6_a4=-11
K_a6_a5=1
K_a6_a7=1
K_a6_a8=12
K_a6_a9=1
K_a7_a0=-11
K_a7_a1=-11
K_a7_a2=1
K_a7_a4=-11
K_a7_a5=1
K_a7_a8=12
K_a7_a9=1
K_a8_a2=-11
K_a8_a3=-11
K_a8_a5=-11
K_a8_a6=-11
K_a8_a7=-11
K_a8_a9=12
K_a9_a0=-11
K_a9_a1=-11
K_a9_a4=-11
K_a9_a8=-11
m_a0_proc_1=1
m_a1_proc_1=1
m_a2_proc_0=1
m_a3_proc_0=1
m_a4_proc_1=1
m_a5_proc_0=1
m_a6_proc_0=1
m_a7_proc_0=1
m_a8_proc_1=1
m_a9_proc_0=1
y_a0_proc_1=0.000
y_a1_proc_1=0.000
y_a2_proc_0=0.000
y_a3_proc_0=0.000
y_a4_proc_1=0.000
y_a5_proc_0=0.000
y_a6_proc_0=0.000
y_a7_proc_0=0.000
y_a8_proc_1=0.000
y_a9_proc_0=0.000
